6
7
11
4
6
3
15
2
3
14
3
13
4
13
4
13
15
5
11
12
6
4
6
5
5
6
4
10
15
14
1
12
2
13
14
13
8
7
6
2
10
10
11
12
5
4
1
15
1
12
15
5
3
3
4
5
4
1
12
3
11
9
1
14
12
3
1
8
2
8
7
9
12
13
2
7
3
5
1
11
6
9
9
13
11
9
8
14
5
6
4
4
13
5
12
14
9
6
14
8
